NAME: br17 
TYPE: ATSP 
COMMENT: 17 city problem (Repetto) 
DIMENSION: 17 
EDGE_WEIGHT_TYPE: EXPLICIT 
EDGE_WEIGHT_FORMAT: FULL_MATRIX 

CROSSOVER: 1
MUTATIONS: 1 0
SELECTION: 1
GENERATIONS: 425
POPULATION: 85

0 time
 12 10 9 13 2 11 0 7 16 8 3 4 5 14 15 6 1 | Mu 39.

1 time
 10 1 0 11 16 5 3 4 6 14 15 12 13 2 9 8 7 | Mu 52.

2 time
 15 12 9 13 2 1 10 11 0 7 16 5 3 4 14 6 8 | Mu 58.

3 time
 15 14 6 11 13 1 9 12 2 0 16 8 7 10 5 4 3 | Mu 54.

4 time
 3 7 8 9 0 13 11 14 15 5 1 10 2 12 16 6 4 | Mu 71.

MINIMUM: 39
AVERAGE: 54
MAXIMUM: 71

CROSSOVER: 1
MUTATIONS: 2 0
SELECTION: 1
GENERATIONS: 425
POPULATION: 85

0 time
 11 12 13 10 1 9 0 6 4 3 14 15 5 8 7 16 2 | Mu 71.

1 time
 4 14 3 16 7 0 15 1 12 10 13 2 9 5 8 11 6 | Mu 86.

2 time
 10 9 8 7 1 13 2 0 11 12 15 14 4 3 16 6 5 | Mu 63.

3 time
 5 15 16 8 9 2 13 12 7 11 10 0 1 14 6 3 4 | Mu 58.

4 time
 8 16 12 9 2 0 11 13 1 10 14 6 15 5 4 7 3 | Mu 71.

MINIMUM: 58
AVERAGE: 69
MAXIMUM: 86

CROSSOVER: 1
MUTATIONS: 1 2
SELECTION: 1
GENERATIONS: 425
POPULATION: 85

0 time
 4 5 9 7 12 8 0 2 13 10 1 16 11 15 6 14 3 | Mu 66.

1 time
 16 8 12 2 13 9 1 0 11 10 5 15 14 3 4 6 7 | Mu 45.

2 time
 6 15 10 1 9 0 13 2 12 8 16 7 5 3 4 14 11 | Mu 60.

3 time
 2 13 12 1 11 8 7 9 16 3 4 15 14 5 6 0 10 | Mu 53.

4 time
 9 11 16 12 1 7 0 2 13 10 14 3 15 5 6 4 8 | Mu 74.

MINIMUM: 45
AVERAGE: 59
MAXIMUM: 74

CROSSOVER: 1
MUTATIONS: 1 0
SELECTION: 2
GENERATIONS: 425
POPULATION: 85

0 time
 7 8 16 1 12 2 13 10 9 0 11 6 5 14 15 4 3 | Mu 40.

1 time
 5 14 4 15 8 7 10 12 1 11 0 2 13 9 16 3 6 | Mu 59.

2 time
 11 10 12 9 13 2 0 16 7 5 14 6 15 4 3 8 1 | Mu 50.

3 time
 3 6 5 10 9 12 1 13 2 0 8 16 7 11 15 14 4 | Mu 46.

4 time
 4 14 6 8 0 10 13 2 11 12 9 7 16 1 5 15 3 | Mu 57.

MINIMUM: 40
AVERAGE: 50
MAXIMUM: 59

CROSSOVER: 1
MUTATIONS: 2 0
SELECTION: 2
GENERATIONS: 425
POPULATION: 85

0 time
 2 0 8 7 6 15 10 12 13 9 1 14 3 4 5 16 11 | Mu 70.

1 time
 3 6 14 11 7 8 16 9 1 15 12 10 2 13 0 5 4 | Mu 62.

2 time
 2 13 11 14 15 5 6 10 9 1 12 8 16 3 4 7 0 | Mu 60.

3 time
 1 0 8 14 15 3 4 6 5 10 2 13 12 9 11 16 7 | Mu 55.

4 time
 4 3 5 12 10 2 13 0 7 16 8 11 1 9 15 14 6 | Mu 49.

MINIMUM: 49
AVERAGE: 59
MAXIMUM: 70

CROSSOVER: 1
MUTATIONS: 1 2
SELECTION: 2
GENERATIONS: 425
POPULATION: 85

0 time
 1 11 0 14 15 5 3 4 7 8 16 6 9 10 12 13 2 | Mu 51.

1 time
 3 4 16 8 9 1 11 0 13 2 12 10 7 14 6 15 5 | Mu 47.

2 time
 1 7 10 2 13 12 0 11 16 8 14 3 4 6 15 5 9 | Mu 52.

3 time
 12 9 13 2 0 10 1 6 3 4 14 15 5 8 16 7 11 | Mu 47.

4 time
 10 11 0 8 7 14 6 15 5 3 4 16 9 1 2 13 12 | Mu 45.

MINIMUM: 45
AVERAGE: 48
MAXIMUM: 52

CROSSOVER: 2
MUTATIONS: 1 2
SELECTION: 2
GENERATIONS: 425
POPULATION: 85

0 time
 11 0 1 13 2 9 12 10 8 16 14 5 15 4 3 6 7 | Mu 47.

1 time
 6 5 12 2 1 15 16 8 7 11 13 0 10 9 14 4 3 | Mu 68.

2 time
 0 11 1 10 7 8 15 6 14 5 4 3 16 12 9 2 13 | Mu 47.

3 time
 13 1 10 0 8 7 15 5 6 4 3 14 16 11 2 9 12 | Mu 55.

4 time
 6 5 11 10 12 1 2 13 9 0 8 7 16 3 4 14 15 | Mu 43.

MINIMUM: 43
AVERAGE: 52
MAXIMUM: 68

